 Zr                                     
    1.000000000000000     
    10.4319923391222371   -0.0134225269392715   -0.0105968443128195
    -0.0137186337985355   10.4842866089134628    0.0052839000236386
    -1.7323430303361183    0.0074470696528065   10.6156492897251500
  Ce             Zr             O            
               5              27              64
Direct
  0.4956930620120517  0.9948318819745339  0.4986835483662730
  0.9951249858951883  0.2146430768451211  0.2534654066969608
  0.9953024075066779  0.4957882078817732  0.5003603696516876
  0.4948386617286502  0.4966377383524758  0.9980042027674543
  0.9962290672966887  0.9944972875269471  0.9973277567563130
  0.2176777645090198  0.9560348204927607  0.2904164450403712
  0.2284231397139038  0.2506558317587775  0.5442985114888117
  0.4988529377949362  0.2066706571870114  0.2488881674528329
  0.9998629562756776  0.9976485951343221  0.5033750565567416
  0.7250509121731739  0.9552943527530573  0.2893250896894557
  0.7209890900680094  0.2470481906467370  0.5405221030428038
  0.5008898638356740  0.5001437776090469  0.5028596032086980
  0.2308317372546114  0.4599392252700198  0.2901963572145974
  0.2205376539562138  0.7472337489385268  0.5417715818186721
  0.4989169511682263  0.7102242172651643  0.2518366107575858
  0.7142001340034270  0.4588394033551069  0.2899362192991290
  0.7260915855829850  0.7496260436846640  0.5435808861701048
  0.9987166757812602  0.7064902589427078  0.2497682569949973
  0.4988888337200237  0.9998599813843327  0.0009345705162787
  0.2274677431990355  0.9573704905051699  0.7891684695941308
  0.2212835551213104  0.2470946993479828  0.0407809259895515
  0.5001242510286374  0.2080194599218217  0.7518267377814212
  0.7182406360830100  0.9559485798400829  0.7899059217324265
  0.7206858742635660  0.2512745142270560  0.0378213080571186
  0.9997108980467146  0.2066567170815503  0.7485635129004322
  0.2178573394527845  0.4559175828510078  0.7904451176430030
  0.2253528585413491  0.7503721592266430  0.0433027758471951
  0.4992017523413423  0.7070196825854040  0.7491967987924326
  0.9990762456272293  0.5012457218738362  0.0003031984444490
  0.7280179347384248  0.4569776748179706  0.7880303039693786
  0.7198662291372386  0.7478055149425913  0.0413127987595843
  0.9999176399790528  0.7088893789522785  0.7530347662844221
  0.3948618067381062  0.1446303720784101  0.0684325395485317
  0.0934190252974787  0.3619547490954744  0.1324993747267200
  0.3317864445664256  0.3194486001117980  0.2164839496035071
  0.3336558622934263  0.3925794745299385  0.4709955964402184
  0.3863286150346426  0.0704494882615094  0.3168395393206893
  0.1411859093195105  0.1006606137150143  0.1568921982301745
  0.1030368627740188  0.3536085997666873  0.3903656594299534
  0.1398290465567626  0.1024506937286063  0.4153790394446375
  0.8836815443701482  0.1426389825249714  0.0712495739687924
  0.5881375070739452  0.3509419048932259  0.1392234495610083
  0.8234930934413356  0.3309821366200936  0.2085754990022508
  0.8227932196434580  0.3783810832403844  0.4552010533995272
  0.8930191527284066  0.0588468839407739  0.3253989105317032
  0.6341513913871921  0.0986226742688601  0.1562480219153812
  0.5815074939317952  0.3512260129041138  0.3845061338585865
  0.6382497983523763  0.1104102596293117  0.4014266217137461
  0.3915945801621845  0.6485632830950507  0.0762507424059820
  0.0928307988856432  0.8502739161156541  0.1411742607099171
  0.3320566764350872  0.8208633897906310  0.2217748341743544
  0.3180618316323134  0.8864678676229261  0.4639377945959069
  0.3978599796536670  0.5666818372514228  0.3213014099474734
  0.1350650884322064  0.6006775856346422  0.1576960871504482
  0.0800062712005243  0.8500718812597583  0.3847242599467151
  0.1391364354351410  0.6113890922683112  0.4025813932445530
  0.8930208484772635  0.6420830592715205  0.0702051297492403
  0.5872051755801877  0.8567189202420238  0.1338408531358155
  0.8307075624681772  0.8194763700453080  0.2149147532535949
  0.8272776196206593  0.8905544224210686  0.4714255838659938
  0.8854643219913783  0.5723512772930519  0.3191691478302445
  0.6364012853522851  0.6051627152163235  0.1616041849700522
  0.5929806615699320  0.8459879419033101  0.3824659348478292
  0.6365511792980385  0.6059198258411840  0.4105199196334226
  0.3943817024705893  0.1478918160263092  0.5765721765989724
  0.0952874628835616  0.3502505348028393  0.6415136803719648
  0.3337406209846421  0.3209310980735083  0.7223703308019225
  0.3171855203324725  0.3890040757025517  0.9643413034972284
  0.3951541650656836  0.0659620381201549  0.8202279224611146
  0.1350828454345532  0.0983272801650443  0.6580891135209228
  0.0804185875487065  0.3506816466078746  0.8835837414506429
  0.1386076610555946  0.1111618272142749  0.9007838054636466
  0.8944169223607261  0.1416927931984873  0.5698827009562635
  0.5904023058878209  0.3565972418713628  0.6340897947194506
  0.8344064556818012  0.3238568478243593  0.7105228280109017
  0.8291641598765693  0.3906645230781933  0.9654183534236367
  0.8858697950041972  0.0718807063845546  0.8164612371485660
  0.6388452267295719  0.1038678688827090  0.6614156351206404
  0.5934453589922057  0.3473005077287752  0.8808047961531713
  0.6330471292371413  0.1058522652132226  0.9074769835999561
  0.3943468403817079  0.6434721040293852  0.5698256152507568
  0.0885667502050609  0.8557555163504986  0.6351143635283378
  0.3324912449191757  0.8209188488772483  0.7150797214635176
  0.3274820796346702  0.8942964405787777  0.9706449893199220
  0.3856025504412059  0.5721087105363836  0.8170032658381530
  0.1376219465341677  0.6040170332351451  0.6626180687449192
  0.0943709774335204  0.8463587185244705  0.8825726704071997
  0.1348442307956503  0.6062546439520844  0.9100284388121338
  0.8913286727057894  0.6456790107721844  0.5784004459522762
  0.5943948755291188  0.8503462093357896  0.6411132387648522
  0.8332510950007475  0.8209620871833110  0.7222503690544997
  0.8170661043141223  0.8872322305238640  0.9636897082042140
  0.8954013855843002  0.5672369868888723  0.8213232041999845
  0.6347317016380885  0.5987076207460547  0.6574680895677147
  0.5798205244404642  0.8508355062527571  0.8840824305131321
  0.6388275294767141  0.6109515601120066  0.9017290674422540
 
  0.00000000E+00  0.00000000E+00  0.00000000E+00
  0.00000000E+00  0.00000000E+00  0.00000000E+00
  0.00000000E+00  0.00000000E+00  0.00000000E+00
  0.00000000E+00  0.00000000E+00  0.00000000E+00
  0.00000000E+00  0.00000000E+00  0.00000000E+00
  0.00000000E+00  0.00000000E+00  0.00000000E+00
  0.00000000E+00  0.00000000E+00  0.00000000E+00
  0.00000000E+00  0.00000000E+00  0.00000000E+00
  0.00000000E+00  0.00000000E+00  0.00000000E+00
  0.00000000E+00  0.00000000E+00  0.00000000E+00
  0.00000000E+00  0.00000000E+00  0.00000000E+00
  0.00000000E+00  0.00000000E+00  0.00000000E+00
  0.00000000E+00  0.00000000E+00  0.00000000E+00
  0.00000000E+00  0.00000000E+00  0.00000000E+00
  0.00000000E+00  0.00000000E+00  0.00000000E+00
  0.00000000E+00  0.00000000E+00  0.00000000E+00
  0.00000000E+00  0.00000000E+00  0.00000000E+00
  0.00000000E+00  0.00000000E+00  0.00000000E+00
  0.00000000E+00  0.00000000E+00  0.00000000E+00
  0.00000000E+00  0.00000000E+00  0.00000000E+00
  0.00000000E+00  0.00000000E+00  0.00000000E+00
  0.00000000E+00  0.00000000E+00  0.00000000E+00
  0.00000000E+00  0.00000000E+00  0.00000000E+00
  0.00000000E+00  0.00000000E+00  0.00000000E+00
  0.00000000E+00  0.00000000E+00  0.00000000E+00
  0.00000000E+00  0.00000000E+00  0.00000000E+00
  0.00000000E+00  0.00000000E+00  0.00000000E+00
  0.00000000E+00  0.00000000E+00  0.00000000E+00
  0.00000000E+00  0.00000000E+00  0.00000000E+00
  0.00000000E+00  0.00000000E+00  0.00000000E+00
  0.00000000E+00  0.00000000E+00  0.00000000E+00
  0.00000000E+00  0.00000000E+00  0.00000000E+00
  0.00000000E+00  0.00000000E+00  0.00000000E+00
  0.00000000E+00  0.00000000E+00  0.00000000E+00
  0.00000000E+00  0.00000000E+00  0.00000000E+00
  0.00000000E+00  0.00000000E+00  0.00000000E+00
  0.00000000E+00  0.00000000E+00  0.00000000E+00
  0.00000000E+00  0.00000000E+00  0.00000000E+00
  0.00000000E+00  0.00000000E+00  0.00000000E+00
  0.00000000E+00  0.00000000E+00  0.00000000E+00
  0.00000000E+00  0.00000000E+00  0.00000000E+00
  0.00000000E+00  0.00000000E+00  0.00000000E+00
  0.00000000E+00  0.00000000E+00  0.00000000E+00
  0.00000000E+00  0.00000000E+00  0.00000000E+00
  0.00000000E+00  0.00000000E+00  0.00000000E+00
  0.00000000E+00  0.00000000E+00  0.00000000E+00
  0.00000000E+00  0.00000000E+00  0.00000000E+00
  0.00000000E+00  0.00000000E+00  0.00000000E+00
  0.00000000E+00  0.00000000E+00  0.00000000E+00
  0.00000000E+00  0.00000000E+00  0.00000000E+00
  0.00000000E+00  0.00000000E+00  0.00000000E+00
  0.00000000E+00  0.00000000E+00  0.00000000E+00
  0.00000000E+00  0.00000000E+00  0.00000000E+00
  0.00000000E+00  0.00000000E+00  0.00000000E+00
  0.00000000E+00  0.00000000E+00  0.00000000E+00
  0.00000000E+00  0.00000000E+00  0.00000000E+00
  0.00000000E+00  0.00000000E+00  0.00000000E+00
  0.00000000E+00  0.00000000E+00  0.00000000E+00
  0.00000000E+00  0.00000000E+00  0.00000000E+00
  0.00000000E+00  0.00000000E+00  0.00000000E+00
  0.00000000E+00  0.00000000E+00  0.00000000E+00
  0.00000000E+00  0.00000000E+00  0.00000000E+00
  0.00000000E+00  0.00000000E+00  0.00000000E+00
  0.00000000E+00  0.00000000E+00  0.00000000E+00
  0.00000000E+00  0.00000000E+00  0.00000000E+00
  0.00000000E+00  0.00000000E+00  0.00000000E+00
  0.00000000E+00  0.00000000E+00  0.00000000E+00
  0.00000000E+00  0.00000000E+00  0.00000000E+00
  0.00000000E+00  0.00000000E+00  0.00000000E+00
  0.00000000E+00  0.00000000E+00  0.00000000E+00
  0.00000000E+00  0.00000000E+00  0.00000000E+00
  0.00000000E+00  0.00000000E+00  0.00000000E+00
  0.00000000E+00  0.00000000E+00  0.00000000E+00
  0.00000000E+00  0.00000000E+00  0.00000000E+00
  0.00000000E+00  0.00000000E+00  0.00000000E+00
  0.00000000E+00  0.00000000E+00  0.00000000E+00
  0.00000000E+00  0.00000000E+00  0.00000000E+00
  0.00000000E+00  0.00000000E+00  0.00000000E+00
  0.00000000E+00  0.00000000E+00  0.00000000E+00
  0.00000000E+00  0.00000000E+00  0.00000000E+00
  0.00000000E+00  0.00000000E+00  0.00000000E+00
  0.00000000E+00  0.00000000E+00  0.00000000E+00
  0.00000000E+00  0.00000000E+00  0.00000000E+00
  0.00000000E+00  0.00000000E+00  0.00000000E+00
  0.00000000E+00  0.00000000E+00  0.00000000E+00
  0.00000000E+00  0.00000000E+00  0.00000000E+00
  0.00000000E+00  0.00000000E+00  0.00000000E+00
  0.00000000E+00  0.00000000E+00  0.00000000E+00
  0.00000000E+00  0.00000000E+00  0.00000000E+00
  0.00000000E+00  0.00000000E+00  0.00000000E+00
  0.00000000E+00  0.00000000E+00  0.00000000E+00
  0.00000000E+00  0.00000000E+00  0.00000000E+00
  0.00000000E+00  0.00000000E+00  0.00000000E+00
  0.00000000E+00  0.00000000E+00  0.00000000E+00
  0.00000000E+00  0.00000000E+00  0.00000000E+00
  0.00000000E+00  0.00000000E+00  0.00000000E+00
